33D32945 STP File, STP Format Version 1.0

SECTION Comments
Name "shell_n11_d2_s40"
Problem "Euclidean Steiner Tree Problem"
Remark "Generated with STPGenerator. 2 dimensions."
END

SECTION Graph
Nodes 11
END

SECTION Coordinates
DD 0 0.9998061566 0.0196888098
DD 1 -0.4536733877 0.8911680298
DD 2 0.8826212875 -0.4700847401
DD 3 -0.6463883893 0.7630085519
DD 4 -0.9414856946 -0.3370529438
DD 5 -0.9253596312 -0.3790904286
DD 6 0.9916999820 0.1285735029
DD 7 0.3995778222 0.9166992768
DD 8 -0.8999916304 -0.4359071749
DD 9 0.7605783793 0.6492461236
DD 10 -0.5825462429 0.8127975608
END
